Route #1: 4 34 46 8 35 19 14
Route #2: 26 12 40 32 44 3 16 49
Route #3: 17
Route #4: 6 33 1 43 41 42 22 28
Route #5: 7 11 38 10 31 39
Route #6: 2 30 48 47 36 37 20 29
Route #7: 45 27 13 15 5 21
Route #8: 9 25 18 24 23
cost: 636.141404506071
